decision_x1=[0,7];
decision_x2=[0,7];
decision_x3=[0,7];
decision_x4=[0,7];
decision_x5=[0,7];
decision_x6=[0,7];
decision_x7=[0,7];
decision_x8=[0,7];
decision_x9=[0,7];
decision_x10=[0,7];
decision_x11=[0,7];
decision_x12=[0,7];
decision_x13=[0,7];
decision_x14=[0,7];
decision_x15=[0,7];
decision_x16=[0,7];
decision_x17=[0,7];
decision_x18=[0,7];
random_y1=[0,7];
random_y2=[0,7];
random_y3=[0,7];
random_y4=[0,7];
random_y5=[0,7];
random_y6=[0,7];
random_y7=[0,7];
random_y8=[0,7];
constraint_x2_x1=[
0,0,4.3|
0,1,8.3|
0,2,7.3|
0,3,1.5|
0,4,7.3|
0,5,9.7|
0,6,1.9|
0,7,1.9|
1,0,2|
1,1,4.5|
1,2,6|
1,3,7.5|
1,4,7.6|
1,5,6.1|
1,6,5.1|
1,7,7.4|
2,0,8|
2,1,3.2|
2,2,5.9|
2,3,7.2|
2,4,5.7|
2,5,9.7|
2,6,3.2|
2,7,2.1|
3,0,2.6|
3,1,5.3|
3,2,6.4|
3,3,5.4|
3,4,4.8|
3,5,4.1|
3,6,8.3|
3,7,5.4|
4,0,9.6|
4,1,2.3|
4,2,5.7|
4,3,2.6|
4,4,0.94|
4,5,3.6|
4,6,9.2|
4,7,1.8|
5,0,2.2|
5,1,0.32|
5,2,1.1|
5,3,6.2|
5,4,8.8|
5,5,0.55|
5,6,2.9|
5,7,10|
6,0,9.8|
6,1,9.5|
6,2,7.5|
6,3,4.4|
6,4,9.7|
6,5,0.69|
6,6,6.9|
6,7,0.081|
7,0,2.4|
7,1,9.4|
7,2,7.3|
7,3,9.5|
7,4,6|
7,5,5|
7,6,2.4|
7,7,3.4|
];
constraint_x3_x2=[
0,0,9.6|
0,1,3.8|
0,2,1.2|
0,3,0.93|
0,4,2.1|
0,5,7.3|
0,6,5.3|
0,7,3.8|
1,0,5.3|
1,1,5.4|
1,2,2|
1,3,3.5|
1,4,8.9|
1,5,3.7|
1,6,0.6|
1,7,1.4|
2,0,6.5|
2,1,5.8|
2,2,4.2|
2,3,6.2|
2,4,2.8|
2,5,2.5|
2,6,1.9|
2,7,2.3|
3,0,8.6|
3,1,1.3|
3,2,3.9|
3,3,2.1|
3,4,7.5|
3,5,8.3|
3,6,4.7|
3,7,9.4|
4,0,5.2|
4,1,9.5|
4,2,0.14|
4,3,0.68|
4,4,8.9|
4,5,0.4|
4,6,9|
4,7,6.9|
5,0,4.5|
5,1,9.5|
5,2,6.5|
5,3,4.6|
5,4,8.6|
5,5,8.8|
5,6,8.3|
5,7,3.1|
6,0,9.6|
6,1,9.2|
6,2,1.1|
6,3,4.6|
6,4,2.6|
6,5,1.1|
6,6,7.2|
6,7,8.8|
7,0,1.8|
7,1,5.3|
7,2,8.1|
7,3,9.8|
7,4,7.3|
7,5,8.1|
7,6,6.6|
7,7,8.5|
];
constraint_x4_x3=[
0,0,8.9|
0,1,4.7|
0,2,8.5|
0,3,4.7|
0,4,3.5|
0,5,8.1|
0,6,6.1|
0,7,0.95|
1,0,5.2|
1,1,8.7|
1,2,9.1|
1,3,9.3|
1,4,7.6|
1,5,8.8|
1,6,2.4|
1,7,9.3|
2,0,1.8|
2,1,2.7|
2,2,7.5|
2,3,0.099|
2,4,6.1|
2,5,1|
2,6,2.5|
2,7,6.2|
3,0,10|
3,1,8.1|
3,2,1.5|
3,3,5.1|
3,4,4|
3,5,9.9|
3,6,9.7|
3,7,6.3|
4,0,8.2|
4,1,7.1|
4,2,3|
4,3,6.2|
4,4,1.4|
4,5,8.7|
4,6,6.2|
4,7,0.8|
5,0,9.5|
5,1,9.1|
5,2,7.9|
5,3,1.3|
5,4,2.3|
5,5,2|
5,6,7.1|
5,7,4.3|
6,0,2.9|
6,1,6.2|
6,2,4.9|
6,3,8.7|
6,4,3.1|
6,5,6.7|
6,6,4.2|
6,7,5.3|
7,0,5.8|
7,1,3.8|
7,2,2.2|
7,3,7.3|
7,4,8.6|
7,5,3.3|
7,6,6.8|
7,7,0.33|
];
constraint_x5_x1=[
0,0,7|
0,1,2.4|
0,2,9.7|
0,3,8.6|
0,4,4.9|
0,5,5|
0,6,4.6|
0,7,3.7|
1,0,6.8|
1,1,2.3|
1,2,9.1|
1,3,3.2|
1,4,1.7|
1,5,1.1|
1,6,3.1|
1,7,6.7|
2,0,7.2|
2,1,2.8|
2,2,6.7|
2,3,4.9|
2,4,1.3|
2,5,5.8|
2,6,7.7|
2,7,2.1|
3,0,5.9|
3,1,3.3|
3,2,3.5|
3,3,1.6|
3,4,8.4|
3,5,7.6|
3,6,8.9|
3,7,2.4|
4,0,0.73|
4,1,6.8|
4,2,7.5|
4,3,5|
4,4,1.7|
4,5,9.7|
4,6,7.6|
4,7,7.8|
5,0,3.1|
5,1,5.7|
5,2,1.9|
5,3,8.1|
5,4,1.9|
5,5,2.2|
5,6,6.1|
5,7,2.5|
6,0,9.3|
6,1,3.5|
6,2,2.7|
6,3,2.9|
6,4,5.8|
6,5,4.8|
6,6,4.6|
6,7,1.4|
7,0,6.9|
7,1,4.8|
7,2,3.6|
7,3,3.5|
7,4,1.8|
7,5,2.7|
7,6,3.6|
7,7,5.3|
];
constraint_x6_x2=[
0,0,8|
0,1,5.6|
0,2,1.4|
0,3,6.7|
0,4,0.33|
0,5,3.3|
0,6,9.1|
0,7,5.1|
1,0,5.2|
1,1,8.9|
1,2,6.5|
1,3,8.3|
1,4,5.4|
1,5,8.6|
1,6,1.4|
1,7,3.7|
2,0,2.3|
2,1,6.3|
2,2,0.7|
2,3,5.4|
2,4,5.4|
2,5,9|
2,6,4.4|
2,7,8.8|
3,0,0.72|
3,1,7.7|
3,2,0.97|
3,3,9.1|
3,4,2|
3,5,0.15|
3,6,3.7|
3,7,3.8|
4,0,3.1|
4,1,3.3|
4,2,9.2|
4,3,8.8|
4,4,9.6|
4,5,8.1|
4,6,9.1|
4,7,3.3|
5,0,6.4|
5,1,6.6|
5,2,9.6|
5,3,9.4|
5,4,5|
5,5,4.6|
5,6,1.1|
5,7,8.2|
6,0,5.8|
6,1,0.18|
6,2,4.6|
6,3,0.2|
6,4,2|
6,5,1.3|
6,6,3.1|
6,7,9.5|
7,0,7.9|
7,1,6.5|
7,2,9.8|
7,3,5.6|
7,4,7.5|
7,5,8.2|
7,6,8.6|
7,7,7.6|
];
constraint_x6_x5=[
0,0,1.6|
0,1,0.38|
0,2,6|
0,3,2.1|
0,4,0.16|
0,5,6|
0,6,9.4|
0,7,6.1|
1,0,8.6|
1,1,2.5|
1,2,0.75|
1,3,5.8|
1,4,3.5|
1,5,4.5|
1,6,3.1|
1,7,0.88|
2,0,4.9|
2,1,1.1|
2,2,6.5|
2,3,9.9|
2,4,8.6|
2,5,7.5|
2,6,7.9|
2,7,4.6|
3,0,6.9|
3,1,9.6|
3,2,3.1|
3,3,1.2|
3,4,3.6|
3,5,3.6|
3,6,4.8|
3,7,0.93|
4,0,7.4|
4,1,7|
4,2,1.6|
4,3,3.2|
4,4,4.9|
4,5,5.1|
4,6,0.28|
4,7,6|
5,0,7.7|
5,1,4.4|
5,2,3.6|
5,3,1.2|
5,4,1|
5,5,0.95|
5,6,2.5|
5,7,0.058|
6,0,7.8|
6,1,0.22|
6,2,4.9|
6,3,7.6|
6,4,5.9|
6,5,8.4|
6,6,6.6|
6,7,2.5|
7,0,3.4|
7,1,5.8|
7,2,4.7|
7,3,0.75|
7,4,3|
7,5,5.8|
7,6,6.1|
7,7,9.6|
];
constraint_x7_x3=[
0,0,2|
0,1,7.4|
0,2,9.2|
0,3,6.2|
0,4,4.5|
0,5,9.5|
0,6,8.8|
0,7,6.3|
1,0,7.6|
1,1,1.9|
1,2,2.1|
1,3,3.7|
1,4,0.43|
1,5,7.9|
1,6,7.7|
1,7,2.2|
2,0,3.2|
2,1,0.58|
2,2,2.1|
2,3,6.8|
2,4,9.5|
2,5,9.7|
2,6,8.7|
2,7,1.1|
3,0,0.97|
3,1,5|
3,2,4.9|
3,3,1.2|
3,4,7.3|
3,5,9.8|
3,6,7.1|
3,7,3.9|
4,0,1.7|
4,1,4|
4,2,8.4|
4,3,2.5|
4,4,9.9|
4,5,7.5|
4,6,6.7|
4,7,7.6|
5,0,7.9|
5,1,0.69|
5,2,4.8|
5,3,9.5|
5,4,4.8|
5,5,8.5|
5,6,9.6|
5,7,7.6|
6,0,4.7|
6,1,6.5|
6,2,9.3|
6,3,7.7|
6,4,0.58|
6,5,0.12|
6,6,8.3|
6,7,9.9|
7,0,9.5|
7,1,4|
7,2,1.8|
7,3,0.37|
7,4,3|
7,5,0.69|
7,6,0.48|
7,7,6.3|
];
constraint_x7_x6=[
0,0,3.6|
0,1,5.4|
0,2,2.2|
0,3,9.9|
0,4,3.7|
0,5,2.7|
0,6,6.7|
0,7,9.9|
1,0,4.4|
1,1,8.3|
1,2,3.8|
1,3,7.2|
1,4,1.7|
1,5,3.8|
1,6,8.8|
1,7,6.3|
2,0,9.1|
2,1,5.1|
2,2,4|
2,3,3.5|
2,4,9|
2,5,2.9|
2,6,4.1|
2,7,3.3|
3,0,8.9|
3,1,7.4|
3,2,1.7|
3,3,1.4|
3,4,9.7|
3,5,8.4|
3,6,6.3|
3,7,7.1|
4,0,8|
4,1,4.2|
4,2,8.2|
4,3,1.6|
4,4,7.7|
4,5,9.6|
4,6,6.9|
4,7,7.3|
5,0,4.9|
5,1,6.8|
5,2,8.4|
5,3,5.9|
5,4,0.92|
5,5,0.22|
5,6,0.82|
5,7,9|
6,0,2.5|
6,1,8.8|
6,2,7.5|
6,3,6.4|
6,4,5.4|
6,5,3|
6,6,8|
6,7,2.5|
7,0,7|
7,1,2.2|
7,2,7.6|
7,3,0.38|
7,4,0.98|
7,5,3.6|
7,6,3.8|
7,7,6.3|
];
constraint_x8_x4=[
0,0,2.4|
0,1,1.1|
0,2,1.8|
0,3,5.3|
0,4,8|
0,5,0.81|
0,6,8.6|
0,7,1.1|
1,0,2.2|
1,1,6.6|
1,2,5.9|
1,3,9.5|
1,4,1.8|
1,5,4.6|
1,6,3.9|
1,7,8.1|
2,0,9.9|
2,1,3.6|
2,2,3.3|
2,3,7|
2,4,7|
2,5,1.4|
2,6,4.3|
2,7,1.1|
3,0,8.5|
3,1,3|
3,2,6.7|
3,3,8.1|
3,4,6.6|
3,5,6.9|
3,6,4.1|
3,7,2.9|
4,0,7.2|
4,1,9.4|
4,2,8.3|
4,3,9.7|
4,4,0.8|
4,5,4.9|
4,6,1|
4,7,6.3|
5,0,9.8|
5,1,5.8|
5,2,6.6|
5,3,1.2|
5,4,7.1|
5,5,1.8|
5,6,1.6|
5,7,3.3|
6,0,2.3|
6,1,7|
6,2,8.6|
6,3,6.5|
6,4,8|
6,5,2.4|
6,6,3.1|
6,7,3.1|
7,0,9.5|
7,1,0.67|
7,2,3.5|
7,3,6.1|
7,4,4.8|
7,5,4.7|
7,6,2.6|
7,7,3.4|
];
constraint_x8_x7=[
0,0,9|
0,1,7.4|
0,2,0.76|
0,3,3.4|
0,4,3.1|
0,5,0.77|
0,6,2.1|
0,7,2.8|
1,0,3.4|
1,1,5.3|
1,2,4.4|
1,3,4|
1,4,0.82|
1,5,8.6|
1,6,6.4|
1,7,6.6|
2,0,2.8|
2,1,1.4|
2,2,1.3|
2,3,8.4|
2,4,8.4|
2,5,1|
2,6,4.9|
2,7,3.4|
3,0,6.6|
3,1,7.3|
3,2,9.6|
3,3,7.7|
3,4,0.19|
3,5,8.2|
3,6,7.5|
3,7,7.7|
4,0,4.7|
4,1,1.2|
4,2,3.8|
4,3,0.2|
4,4,7|
4,5,9.3|
4,6,7|
4,7,7.8|
5,0,0.61|
5,1,4.2|
5,2,8.3|
5,3,6.4|
5,4,0.42|
5,5,4.2|
5,6,7.2|
5,7,4.4|
6,0,8.4|
6,1,2.4|
6,2,6.1|
6,3,2|
6,4,6.3|
6,5,5.5|
6,6,8.4|
6,7,6.3|
7,0,7.3|
7,1,5.1|
7,2,3.8|
7,3,0.59|
7,4,1.3|
7,5,3|
7,6,6.9|
7,7,9.8|
];
constraint_x9_x5=[
0,0,8.7|
0,1,0.79|
0,2,5.2|
0,3,2.8|
0,4,3.2|
0,5,2.1|
0,6,0.5|
0,7,7.8|
1,0,7.2|
1,1,0.41|
1,2,3.8|
1,3,8.7|
1,4,7|
1,5,9.2|
1,6,3.8|
1,7,9.5|
2,0,7|
2,1,7|
2,2,6.3|
2,3,1.3|
2,4,2.3|
2,5,0.56|
2,6,5.2|
2,7,9.5|
3,0,2.6|
3,1,6.3|
3,2,9.9|
3,3,3.7|
3,4,3.3|
3,5,3.4|
3,6,7.2|
3,7,2.6|
4,0,1.9|
4,1,2.6|
4,2,3.8|
4,3,7.7|
4,4,7.8|
4,5,1.2|
4,6,6.3|
4,7,9.3|
5,0,7.5|
5,1,6.8|
5,2,0.046|
5,3,5.4|
5,4,1.7|
5,5,7.6|
5,6,6.8|
5,7,0.6|
6,0,4|
6,1,0.012|
6,2,2.3|
6,3,6.9|
6,4,7.4|
6,5,3.8|
6,6,4.9|
6,7,9.7|
7,0,0.21|
7,1,3.8|
7,2,2.9|
7,3,3.6|
7,4,0.74|
7,5,1.7|
7,6,6.8|
7,7,8.9|
];
constraint_x10_x6=[
0,0,7.3|
0,1,7.5|
0,2,4.3|
0,3,5.7|
0,4,6.7|
0,5,4.6|
0,6,5.5|
0,7,8.9|
1,0,0.028|
1,1,0.36|
1,2,8.8|
1,3,3.3|
1,4,1.4|
1,5,2.8|
1,6,2.5|
1,7,0.77|
2,0,0.89|
2,1,9.9|
2,2,2.5|
2,3,7.7|
2,4,6.6|
2,5,2.6|
2,6,9.1|
2,7,1.5|
3,0,1.2|
3,1,9.8|
3,2,4.4|
3,3,3.6|
3,4,9.7|
3,5,5.6|
3,6,3|
3,7,0.49|
4,0,7.7|
4,1,7.8|
4,2,7.2|
4,3,3.7|
4,4,1.7|
4,5,7.6|
4,6,3.9|
4,7,7.4|
5,0,7.4|
5,1,3.6|
5,2,1.8|
5,3,2.6|
5,4,7.1|
5,5,0.77|
5,6,7|
5,7,1.5|
6,0,6.4|
6,1,0.51|
6,2,8|
6,3,5.9|
6,4,2.9|
6,5,7.1|
6,6,6.9|
6,7,3.8|
7,0,1.1|
7,1,7.5|
7,2,5.9|
7,3,5.2|
7,4,8.6|
7,5,4.2|
7,6,1.9|
7,7,6.4|
];
constraint_x11_x7=[
0,0,5.8|
0,1,6.8|
0,2,4.7|
0,3,0.31|
0,4,7.4|
0,5,5.9|
0,6,2.7|
0,7,7.4|
1,0,8.8|
1,1,8.6|
1,2,5|
1,3,1.3|
1,4,4.8|
1,5,1.4|
1,6,0.98|
1,7,7|
2,0,3.1|
2,1,1.7|
2,2,7.1|
2,3,4.8|
2,4,9.2|
2,5,1.5|
2,6,4.9|
2,7,3.2|
3,0,4.5|
3,1,2.8|
3,2,0.72|
3,3,5.9|
3,4,0.45|
3,5,9.9|
3,6,9.7|
3,7,0.021|
4,0,3.4|
4,1,6.8|
4,2,9.7|
4,3,0.012|
4,4,8|
4,5,8.2|
4,6,1.3|
4,7,6.8|
5,0,1.8|
5,1,4.5|
5,2,10|
5,3,2|
5,4,9.4|
5,5,2.1|
5,6,5.4|
5,7,8.3|
6,0,6.9|
6,1,6.6|
6,2,6.4|
6,3,8.4|
6,4,7.6|
6,5,7.5|
6,6,0.98|
6,7,3.5|
7,0,8.7|
7,1,8.3|
7,2,5.2|
7,3,4.5|
7,4,7|
7,5,6.5|
7,6,3|
7,7,2.6|
];
constraint_x12_x8=[
0,0,3.8|
0,1,1.5|
0,2,1.3|
0,3,8.5|
0,4,7.5|
0,5,2.9|
0,6,5.7|
0,7,1.8|
1,0,4.3|
1,1,4.2|
1,2,7.4|
1,3,7.4|
1,4,2.7|
1,5,7.4|
1,6,2.9|
1,7,8.1|
2,0,5.4|
2,1,2.6|
2,2,0.6|
2,3,2.2|
2,4,9.1|
2,5,1.5|
2,6,9.3|
2,7,5.9|
3,0,5.5|
3,1,5.9|
3,2,1.4|
3,3,7.7|
3,4,5.2|
3,5,6.8|
3,6,2.3|
3,7,2.3|
4,0,5.5|
4,1,7.8|
4,2,0.43|
4,3,9.4|
4,4,3.1|
4,5,2.2|
4,6,7.1|
4,7,2.5|
5,0,7.4|
5,1,6|
5,2,6.3|
5,3,2.6|
5,4,4.7|
5,5,8.4|
5,6,6.8|
5,7,4.5|
6,0,2.4|
6,1,7.8|
6,2,0.5|
6,3,4.5|
6,4,9.7|
6,5,9.2|
6,6,8.3|
6,7,7.9|
7,0,4.6|
7,1,9.7|
7,2,4.6|
7,3,1.4|
7,4,1.5|
7,5,8.7|
7,6,2.3|
7,7,5.4|
];
constraint_x13_x9=[
0,0,5|
0,1,5.2|
0,2,9.6|
0,3,1.7|
0,4,9.8|
0,5,3.8|
0,6,6.5|
0,7,3.9|
1,0,1.7|
1,1,5.5|
1,2,4.5|
1,3,5.8|
1,4,4|
1,5,7.1|
1,6,7.4|
1,7,9.4|
2,0,3.3|
2,1,8|
2,2,5.4|
2,3,7.9|
2,4,5.6|
2,5,7.7|
2,6,6.7|
2,7,9.9|
3,0,8.5|
3,1,4.1|
3,2,10|
3,3,4.9|
3,4,4.2|
3,5,8.3|
3,6,3.5|
3,7,8.6|
4,0,7.2|
4,1,7.4|
4,2,3.3|
4,3,4|
4,4,6.3|
4,5,6.1|
4,6,5.7|
4,7,2.1|
5,0,1.7|
5,1,1.9|
5,2,4.5|
5,3,6.7|
5,4,0.62|
5,5,4.2|
5,6,7.5|
5,7,2.3|
6,0,2.6|
6,1,9.6|
6,2,1.4|
6,3,8.6|
6,4,0.066|
6,5,8.3|
6,6,9.2|
6,7,9|
7,0,4.2|
7,1,0.41|
7,2,6.8|
7,3,4.2|
7,4,0.8|
7,5,2.5|
7,6,3.4|
7,7,7.2|
];
constraint_x14_x10=[
0,0,7.7|
0,1,8.6|
0,2,1.6|
0,3,5.5|
0,4,0.036|
0,5,1.7|
0,6,2.3|
0,7,1.9|
1,0,4.9|
1,1,3.7|
1,2,1.3|
1,3,5.3|
1,4,1.8|
1,5,2.9|
1,6,9.8|
1,7,3|
2,0,7|
2,1,3.7|
2,2,1.1|
2,3,2.4|
2,4,0.47|
2,5,5.4|
2,6,5.5|
2,7,0.36|
3,0,0.27|
3,1,5.3|
3,2,1|
3,3,0.3|
3,4,2.7|
3,5,1.6|
3,6,2.5|
3,7,5.3|
4,0,7.2|
4,1,5.3|
4,2,9.6|
4,3,0.87|
4,4,5|
4,5,0.5|
4,6,9.2|
4,7,6.7|
5,0,0.83|
5,1,6.4|
5,2,7.6|
5,3,2.5|
5,4,7.7|
5,5,4.6|
5,6,4.2|
5,7,0.7|
6,0,4.6|
6,1,6.3|
6,2,7|
6,3,3.1|
6,4,0.31|
6,5,5.1|
6,6,5.8|
6,7,1|
7,0,2.8|
7,1,5.1|
7,2,0.45|
7,3,7.7|
7,4,0.18|
7,5,6.8|
7,6,2.4|
7,7,2.4|
];
constraint_x15_x11=[
0,0,6.9|
0,1,5.3|
0,2,5.9|
0,3,5.5|
0,4,5.5|
0,5,0.29|
0,6,9.8|
0,7,3|
1,0,2.1|
1,1,4.7|
1,2,0.18|
1,3,8.2|
1,4,5|
1,5,3.8|
1,6,9.1|
1,7,8.6|
2,0,5.9|
2,1,8.7|
2,2,3.4|
2,3,4.2|
2,4,1.6|
2,5,0.05|
2,6,7.1|
2,7,3.4|
3,0,1|
3,1,7.5|
3,2,6.4|
3,3,1.7|
3,4,8|
3,5,0.58|
3,6,4.1|
3,7,8.2|
4,0,0.43|
4,1,8.9|
4,2,2.6|
4,3,9|
4,4,1.4|
4,5,4.6|
4,6,6.8|
4,7,5|
5,0,7.3|
5,1,9.6|
5,2,8.7|
5,3,9.6|
5,4,3.8|
5,5,7.6|
5,6,2.4|
5,7,2.9|
6,0,8.9|
6,1,5.8|
6,2,0.16|
6,3,0.66|
6,4,3.7|
6,5,3|
6,6,7.9|
6,7,4|
7,0,4.9|
7,1,0.82|
7,2,5|
7,3,8.6|
7,4,8.4|
7,5,9.5|
7,6,9.2|
7,7,4.2|
];
constraint_x16_x12=[
0,0,9.3|
0,1,3.5|
0,2,2.9|
0,3,3.3|
0,4,2.7|
0,5,8.3|
0,6,7.8|
0,7,9.1|
1,0,3.3|
1,1,4.2|
1,2,0.41|
1,3,5.5|
1,4,7.3|
1,5,3.5|
1,6,0.24|
1,7,4.8|
2,0,6.7|
2,1,8.4|
2,2,8.9|
2,3,7.8|
2,4,0.96|
2,5,6.8|
2,6,2.9|
2,7,9.5|
3,0,1.4|
3,1,7.8|
3,2,7.6|
3,3,3|
3,4,0.17|
3,5,9.4|
3,6,7.5|
3,7,8.8|
4,0,6.9|
4,1,1.2|
4,2,2|
4,3,0.69|
4,4,7|
4,5,4.1|
4,6,3.9|
4,7,5.2|
5,0,0.63|
5,1,1.9|
5,2,1.9|
5,3,3.2|
5,4,1.6|
5,5,0.25|
5,6,7.6|
5,7,1.5|
6,0,2.8|
6,1,4.5|
6,2,9.5|
6,3,7|
6,4,2.9|
6,5,2.5|
6,6,3.9|
6,7,8.2|
7,0,1.5|
7,1,4.2|
7,2,2.8|
7,3,5.2|
7,4,8.5|
7,5,5.4|
7,6,5.9|
7,7,8.2|
];
constraint_x17_x13=[
0,0,0.99|
0,1,1.3|
0,2,9|
0,3,1.9|
0,4,5.1|
0,5,3.8|
0,6,9.5|
0,7,6.6|
1,0,2.8|
1,1,7.3|
1,2,4.2|
1,3,2|
1,4,1.9|
1,5,1.4|
1,6,8.8|
1,7,8.5|
2,0,3.2|
2,1,0.79|
2,2,2.4|
2,3,4.8|
2,4,0.29|
2,5,3.7|
2,6,5|
2,7,1.2|
3,0,3.3|
3,1,7.2|
3,2,7.9|
3,3,7.2|
3,4,5.5|
3,5,2.3|
3,6,2.7|
3,7,7.6|
4,0,7.6|
4,1,3.3|
4,2,9.5|
4,3,2.3|
4,4,0.41|
4,5,4.9|
4,6,5.2|
4,7,1|
5,0,8.6|
5,1,9.4|
5,2,9.8|
5,3,9|
5,4,1.4|
5,5,2.4|
5,6,5.1|
5,7,6.9|
6,0,4.8|
6,1,8.8|
6,2,7.3|
6,3,1.4|
6,4,0.43|
6,5,3.2|
6,6,4|
6,7,8.2|
7,0,3|
7,1,1.3|
7,2,7.5|
7,3,8.5|
7,4,5.5|
7,5,6.4|
7,6,8.1|
7,7,8.1|
];
constraint_x18_x14=[
0,0,4.9|
0,1,0.94|
0,2,6.4|
0,3,3.2|
0,4,8.2|
0,5,4.9|
0,6,8.8|
0,7,5|
1,0,5.3|
1,1,7.4|
1,2,1|
1,3,9.3|
1,4,7|
1,5,10|
1,6,5.9|
1,7,9|
2,0,9.2|
2,1,7.6|
2,2,9.9|
2,3,5.1|
2,4,4.8|
2,5,4.9|
2,6,4.4|
2,7,0.61|
3,0,8|
3,1,4.5|
3,2,3.3|
3,3,1|
3,4,3.3|
3,5,0.88|
3,6,9.4|
3,7,1.3|
4,0,4.1|
4,1,3.6|
4,2,3.1|
4,3,1.8|
4,4,0.039|
4,5,8.3|
4,6,7.8|
4,7,3.9|
5,0,4.9|
5,1,8.6|
5,2,4|
5,3,8.4|
5,4,4.7|
5,5,0.22|
5,6,2.9|
5,7,4.8|
6,0,0.28|
6,1,8.3|
6,2,0.017|
6,3,9.9|
6,4,2|
6,5,7.8|
6,6,6.6|
6,7,4.2|
7,0,9.5|
7,1,6.4|
7,2,4.9|
7,3,2.9|
7,4,0.73|
7,5,1.4|
7,6,2.1|
7,7,7.3|
];
constraint_x1_y1=[
0,0,6.3|
0,1,3.8|
0,2,2.5|
0,3,6.9|
0,4,3.9|
0,5,3.6|
0,6,2.4|
0,7,3.3|
1,0,7.8|
1,1,5.5|
1,2,1.9|
1,3,7.1|
1,4,9.5|
1,5,9|
1,6,9.7|
1,7,2.4|
2,0,5.8|
2,1,0.59|
2,2,8.1|
2,3,10|
2,4,9.4|
2,5,9.9|
2,6,5.6|
2,7,6.8|
3,0,1.2|
3,1,2.7|
3,2,6.7|
3,3,8|
3,4,0.85|
3,5,3|
3,6,8.6|
3,7,8.3|
4,0,9.3|
4,1,3|
4,2,4.3|
4,3,9.1|
4,4,7.2|
4,5,0.83|
4,6,7.3|
4,7,8.9|
5,0,5.3|
5,1,8.4|
5,2,5.9|
5,3,0.61|
5,4,1.1|
5,5,0.82|
5,6,9.8|
5,7,6.7|
6,0,9|
6,1,7.4|
6,2,2.1|
6,3,5.3|
6,4,1.4|
6,5,9.8|
6,6,2.9|
6,7,0.04|
7,0,2.1|
7,1,7.2|
7,2,3.9|
7,3,3.9|
7,4,2.5|
7,5,9.8|
7,6,7.9|
7,7,5.1|
];
constraint_x2_y2=[
0,0,3.2|
0,1,6.7|
0,2,1.5|
0,3,1.8|
0,4,6.3|
0,5,7.8|
0,6,7|
0,7,0.058|
1,0,0.99|
1,1,3.5|
1,2,4.6|
1,3,7.1|
1,4,6.2|
1,5,9.6|
1,6,0.94|
1,7,4.1|
2,0,3.2|
2,1,1|
2,2,5.4|
2,3,9.7|
2,4,0.06|
2,5,4.8|
2,6,2.2|
2,7,8.8|
3,0,7.5|
3,1,0.69|
3,2,4.5|
3,3,4.2|
3,4,5.8|
3,5,2.2|
3,6,9.7|
3,7,3.6|
4,0,2.7|
4,1,9.7|
4,2,3.4|
4,3,0.71|
4,4,3.6|
4,5,9.1|
4,6,0.069|
4,7,7.7|
5,0,4.6|
5,1,7.3|
5,2,8.4|
5,3,0.39|
5,4,6.1|
5,5,2.9|
5,6,4.6|
5,7,8.5|
6,0,2.1|
6,1,6.5|
6,2,8|
6,3,0.5|
6,4,6.6|
6,5,1.8|
6,6,1.9|
6,7,6.3|
7,0,1.5|
7,1,0.25|
7,2,8.2|
7,3,8.9|
7,4,6|
7,5,3.4|
7,6,2.9|
7,7,3.3|
];
constraint_x3_y3=[
0,0,2.7|
0,1,2.9|
0,2,7.6|
0,3,4.8|
0,4,7.2|
0,5,9.5|
0,6,4.5|
0,7,8.2|
1,0,3.3|
1,1,9.6|
1,2,2.5|
1,3,6.2|
1,4,7.6|
1,5,7|
1,6,0.58|
1,7,3.2|
2,0,1.5|
2,1,5.9|
2,2,0.39|
2,3,0.55|
2,4,9.5|
2,5,1.3|
2,6,0.85|
2,7,1.1|
3,0,9.6|
3,1,3.1|
3,2,3.2|
3,3,7.4|
3,4,3.3|
3,5,2.7|
3,6,3.6|
3,7,3.7|
4,0,3.9|
4,1,0.69|
4,2,4.6|
4,3,5.4|
4,4,5.4|
4,5,5.5|
4,6,6.6|
4,7,6.7|
5,0,6.7|
5,1,0.85|
5,2,5|
5,3,7.2|
5,4,1.8|
5,5,8.1|
5,6,7.5|
5,7,6.5|
6,0,6|
6,1,2.8|
6,2,8.4|
6,3,5.8|
6,4,9.7|
6,5,7.3|
6,6,5.4|
6,7,9.6|
7,0,5.4|
7,1,6.7|
7,2,5.9|
7,3,6.3|
7,4,7.1|
7,5,2.9|
7,6,9.6|
7,7,4.4|
];
constraint_x4_y4=[
0,0,2.3|
0,1,9.3|
0,2,0.31|
0,3,1|
0,4,8.6|
0,5,7.4|
0,6,3.9|
0,7,5.3|
1,0,1.5|
1,1,1.8|
1,2,2.6|
1,3,6.9|
1,4,6.1|
1,5,5.4|
1,6,3.6|
1,7,5.8|
2,0,8|
2,1,5.6|
2,2,8|
2,3,5.5|
2,4,5|
2,5,6.6|
2,6,3.5|
2,7,5.3|
3,0,3.4|
3,1,3.1|
3,2,2.7|
3,3,5|
3,4,8.3|
3,5,4|
3,6,4.6|
3,7,3.6|
4,0,5|
4,1,8|
4,2,8.8|
4,3,1.5|
4,4,3.7|
4,5,0.47|
4,6,0.15|
4,7,8.9|
5,0,3|
5,1,1.4|
5,2,5.2|
5,3,8|
5,4,5.3|
5,5,1.3|
5,6,3.4|
5,7,7.3|
6,0,9.9|
6,1,1.1|
6,2,5.7|
6,3,6.8|
6,4,3.3|
6,5,0.92|
6,6,8.1|
6,7,7.4|
7,0,6.2|
7,1,9.2|
7,2,3.8|
7,3,6.4|
7,4,4.7|
7,5,6.3|
7,6,5.7|
7,7,5.4|
];
constraint_x5_y5=[
0,0,8.5|
0,1,3.4|
0,2,4.7|
0,3,1|
0,4,1.4|
0,5,8.3|
0,6,3.2|
0,7,6.1|
1,0,3.9|
1,1,3.2|
1,2,7|
1,3,5.7|
1,4,1.2|
1,5,0.17|
1,6,4.2|
1,7,3.2|
2,0,2.1|
2,1,5.7|
2,2,8.9|
2,3,3|
2,4,2.3|
2,5,4.4|
2,6,3.4|
2,7,2.7|
3,0,9.2|
3,1,6.8|
3,2,6.5|
3,3,6.4|
3,4,7.4|
3,5,2.9|
3,6,9.4|
3,7,9.5|
4,0,1.1|
4,1,8.9|
4,2,6.8|
4,3,4|
4,4,7.4|
4,5,1.9|
4,6,5|
4,7,1.1|
5,0,5|
5,1,4|
5,2,8.2|
5,3,0.48|
5,4,1.9|
5,5,2.2|
5,6,5.8|
5,7,5.7|
6,0,3.1|
6,1,9.4|
6,2,9.7|
6,3,0.74|
6,4,3.7|
6,5,10|
6,6,3.5|
6,7,0.77|
7,0,7.8|
7,1,5|
7,2,1.3|
7,3,4.7|
7,4,8.8|
7,5,0.38|
7,6,1.9|
7,7,9.6|
];
constraint_x6_y6=[
0,0,2.2|
0,1,3.7|
0,2,6.6|
0,3,9.7|
0,4,7.2|
0,5,1.6|
0,6,5.6|
0,7,7.2|
1,0,9.8|
1,1,9.7|
1,2,6.7|
1,3,9.9|
1,4,5.5|
1,5,8.3|
1,6,3.8|
1,7,3|
2,0,7.3|
2,1,0.54|
2,2,1.7|
2,3,9.2|
2,4,7.5|
2,5,7.1|
2,6,0.091|
2,7,4.8|
3,0,6.4|
3,1,8.6|
3,2,9|
3,3,1.9|
3,4,0.31|
3,5,0.14|
3,6,2.9|
3,7,8.1|
4,0,1.2|
4,1,3.7|
4,2,1.2|
4,3,1.9|
4,4,0.35|
4,5,6.9|
4,6,3.9|
4,7,6.4|
5,0,6|
5,1,7.2|
5,2,1.4|
5,3,8.8|
5,4,9|
5,5,0.89|
5,6,3.4|
5,7,3.1|
6,0,8.4|
6,1,9.5|
6,2,3|
6,3,2|
6,4,6.5|
6,5,5.4|
6,6,0.56|
6,7,0.99|
7,0,4.5|
7,1,4|
7,2,4|
7,3,3.4|
7,4,6.4|
7,5,9.4|
7,6,9.2|
7,7,4.3|
];
constraint_x7_y7=[
0,0,4.3|
0,1,7.5|
0,2,1.9|
0,3,0.33|
0,4,1.7|
0,5,1.9|
0,6,1.6|
0,7,2.5|
1,0,2.5|
1,1,3.2|
1,2,2.1|
1,3,7.2|
1,4,4.7|
1,5,8.3|
1,6,9.5|
1,7,5.7|
2,0,8.3|
2,1,5.6|
2,2,3.4|
2,3,7.8|
2,4,1.2|
2,5,4.3|
2,6,3.4|
2,7,5.8|
3,0,2.9|
3,1,5.5|
3,2,1.3|
3,3,7.4|
3,4,3|
3,5,9.9|
3,6,9.1|
3,7,0.75|
4,0,6.3|
4,1,8.1|
4,2,1.5|
4,3,2.8|
4,4,0.98|
4,5,4.5|
4,6,1.7|
4,7,5.4|
5,0,7.2|
5,1,2.7|
5,2,9.9|
5,3,6.7|
5,4,5.5|
5,5,1.7|
5,6,4.2|
5,7,2.8|
6,0,4.8|
6,1,2.5|
6,2,4.4|
6,3,2.5|
6,4,9.1|
6,5,9.3|
6,6,6.2|
6,7,6.3|
7,0,2|
7,1,2.1|
7,2,1.4|
7,3,0.81|
7,4,7.9|
7,5,5|
7,6,7.5|
7,7,5.8|
];
constraint_x8_y8=[
0,0,3.2|
0,1,1.5|
0,2,7.6|
0,3,4.4|
0,4,8.2|
0,5,9.7|
0,6,7.4|
0,7,5.2|
1,0,9.7|
1,1,2.4|
1,2,0.84|
1,3,0.71|
1,4,6.5|
1,5,9.3|
1,6,0.36|
1,7,7.4|
2,0,8.6|
2,1,9.5|
2,2,5.6|
2,3,4.4|
2,4,2.9|
2,5,8.7|
2,6,5.6|
2,7,5.1|
3,0,0.11|
3,1,2|
3,2,7.5|
3,3,1.6|
3,4,7.1|
3,5,0.72|
3,6,1.1|
3,7,4.6|
4,0,1.1|
4,1,4.8|
4,2,2|
4,3,9.4|
4,4,8.4|
4,5,8.2|
4,6,9.3|
4,7,8.2|
5,0,7.2|
5,1,3.8|
5,2,0.76|
5,3,9.5|
5,4,2.1|
5,5,6.1|
5,6,2|
5,7,2|
6,0,5.1|
6,1,9.9|
6,2,2.9|
6,3,6.1|
6,4,2.4|
6,5,8|
6,6,4|
6,7,2.4|
7,0,4.2|
7,1,2.1|
7,2,9|
7,3,2|
7,4,4|
7,5,2.3|
7,6,2.1|
7,7,8.4|
];
initial_distribution_y1=[0.1,0.076,0.15,0.16,0.19,0.12,0.16,0.039];
initial_distribution_y2=[0.19,0.14,0.051,0.13,0.15,0.0064,0.16,0.18];
initial_distribution_y3=[0.21,0.19,0.2,0.12,0.072,0.05,0.14,0.022];
initial_distribution_y4=[0.079,0.1,0.12,0.085,0.092,0.18,0.16,0.18];
initial_distribution_y5=[0.13,0.012,0.1,0.22,0.19,0.074,0.22,0.057];
initial_distribution_y6=[0.13,0.26,0.14,0.033,0.095,0.014,0.03,0.29];
initial_distribution_y7=[0.13,0.29,0.043,0.16,0.046,0.23,0.051,0.051];
initial_distribution_y8=[0.009,0.092,0.081,0.07,0.25,0.18,0.12,0.2];
transition_y1=[
0.051,0.17,0.13,0.089,0.089,0.11,0.17,0.19|
0.037,0.37,0.037,0.13,0.085,0.046,0.28,0.0082|
0.16,0.25,0.047,0.18,0.016,0.15,0.12,0.069|
0.19,0.1,0.13,0.14,0.015,0.23,0.058,0.14|
0.046,0.071,0.13,0.13,0.084,0.12,0.094,0.33|
0.074,0.16,0.0061,0.11,0.26,0.018,0.12,0.25|
0.064,0.16,0.13,0.024,0.093,0.16,0.2,0.17|
0.14,0.2,0.23,0.15,0.13,0.082,0.031,0.032|
];
transition_y2=[
0.14,0.15,0.15,0.039,0.087,0.12,0.16,0.16|
0.066,0.21,0.19,0.18,0.0089,0.091,0.093,0.16|
0.069,0.11,0.12,0.055,0.19,0.18,0.17,0.1|
0.21,0.29,0.27,0.09,0.053,0.045,0.015,0.033|
0.18,0.16,0.13,0.12,0.098,0.09,0.027,0.2|
0.17,0.11,0.16,0.16,0.11,0.11,0.17,0.026|
0.23,0.11,0.06,0.064,0.22,0.12,0.044,0.14|
0.18,0.095,0.02,0.18,0.19,0.12,0.15,0.07|
];
transition_y3=[
0.15,0.16,0.0045,0.1,0.12,0.15,0.15,0.16|
0.024,0.066,0.16,0.18,0.19,0.17,0.13,0.083|
0.027,0.17,0.071,0.16,0.17,0.13,0.081,0.18|
0.014,0.13,0.14,0.1,0.21,0.11,0.11,0.2|
0.13,0.22,0.1,0.18,0.029,0.086,0.038,0.22|
0.12,0.24,0.1,0.25,0.074,0.11,0.097,0.011|
0.15,0.13,0.073,0.2,0.07,0.072,0.21,0.092|
0.17,0.12,0.16,0.12,0.071,0.18,0.11,0.071|
];
transition_y4=[
0.039,0.1,0.18,0.058,0.19,0.19,0.14,0.093|
0.04,0.059,0.12,0.2,0.16,0.21,0.091,0.12|
0.17,0.082,0.094,0.082,0.21,0.2,0.15,0.012|
0.17,0.075,0.094,0.028,0.035,0.14,0.26,0.21|
0.18,0.33,0.033,0.047,0.095,0.22,0.063,0.032|
0.1,0.041,0.1,0.27,0.078,0.22,0.038,0.14|
0.17,0.077,0.1,0.12,0.13,0.11,0.087,0.2|
0.28,0.046,0.13,0.057,0.15,0.17,0.064,0.098|
];
transition_y5=[
0.036,0.12,0.2,0.11,0.21,0.17,0.063,0.1|
0.078,0.025,0.069,0.0049,0.19,0.064,0.3,0.26|
0.25,0.013,0.28,0.14,0.084,0.071,0.11,0.053|
0.17,0.19,0.11,0.13,0.17,0.059,0.045,0.12|
0.13,0.22,0.081,0.048,0.22,0.0052,0.2,0.093|
0.076,0.19,0.14,0.21,0.03,0.14,0.22,0.0095|
0.17,0.13,0.12,0.077,0.06,0.3,0.037,0.11|
0.18,0.081,0.16,0.023,0.18,0.25,0.0044,0.11|
];
transition_y6=[
0.082,0.14,0.099,0.04,0.26,0.22,0.1,0.057|
0.19,0.2,0.016,0.17,0.15,0.018,0.2,0.054|
0.18,0.13,0.21,0.028,0.19,0.067,0.13,0.069|
0.13,0.19,0.075,0.097,0.19,0.13,0.17,0.02|
0.013,0.18,0.087,0.12,0.26,0.098,0.2,0.034|
0.049,0.016,0.27,0.22,0.21,0.078,0.017,0.14|
0.18,0.13,0.14,0.16,0.052,0.14,0.11,0.095|
0.16,0.062,0.1,0.13,0.11,0.099,0.16,0.17|
];
transition_y7=[
0.18,0.15,0.18,0.11,0.082,0.062,0.16,0.086|
0.26,0.0055,0.13,0.13,0.2,0.062,0.075,0.14|
0.21,0.058,0.16,0.0035,0.15,0.061,0.22,0.14|
0.19,0.19,0.18,0.16,0.052,0.091,0.08,0.058|
0.21,0.015,0.18,0.12,0.026,0.087,0.026,0.33|
0.24,0.035,0.059,0.17,0.032,0.11,0.17,0.19|
0.05,0.017,0.14,0.033,0.19,0.2,0.18,0.2|
0.055,0.18,0.017,0.14,0.16,0.15,0.071,0.22|
];
transition_y8=[
0.14,0.18,0.19,0.21,0.12,0.08,0.028,0.045|
0.24,0.09,0.021,0.09,0.061,0.23,0.1,0.17|
0.21,0.16,0.072,0.067,0.18,0.068,0.13,0.11|
0.15,0.2,0.046,0.09,0.24,0.039,0.096,0.14|
0.14,0.18,0.21,0.024,0.11,0.016,0.064,0.24|
0.082,0.062,0.28,0.18,0.0069,0.11,0.012,0.27|
0.19,0.095,0.045,0.22,0.24,0.062,0.078,0.071|
0.019,0.14,0.19,0.19,0.11,0.097,0.14,0.13|
];
